set VV := 0 1 2 3 4 5 6 7 8 9 10 11 12 ;
set VS := 0 1 2 3 4 5 6 7 8 9 10 11 12 13 14 15 16 17 18 19 20 21 22 23 24 25 26 27 28 29 ;
param cv := 
0 19
1 15
2 15
3 24
4 13
5 25
6 13
7 20
8 16
9 14
10 18
11 16
12 23
;
param cs := 
0 25
1 29
2 25
3 28
4 32
5 24
6 22
7 35
8 39
9 36
10 32
11 23
12 34
13 21
14 28
15 37
16 26
17 38
18 40
19 36
20 37
21 35
22 25
23 39
24 24
25 27
26 30
27 21
28 26
29 35
;
param bv:	 0 1 2 3 4 5 6 7 8 9 10 11 12 := 
		0 0 16 0 0 0 0 14 0 0 0 0 0 0 
		1 0 0 21 0 0 0 0 0 0 0 0 0 0 
		2 0 0 0 14 21 21 0 22 0 0 0 20 0 
		3 0 0 0 0 0 0 0 0 0 0 0 0 0 
		4 0 0 0 0 0 0 0 0 0 16 0 0 0 
		5 0 0 0 0 0 0 25 0 0 0 0 0 0 
		6 0 0 0 0 0 0 0 0 0 0 0 0 0 
		7 0 0 0 0 0 0 0 0 0 0 0 0 0 
		8 0 0 0 0 0 0 0 0 0 10 0 0 25 
		9 0 0 0 0 0 0 0 0 0 0 17 0 0 
		10 0 0 0 0 0 0 0 0 0 0 0 0 0 
		11 0 0 0 0 0 0 0 0 0 0 0 0 0 
		12 0 0 0 0 0 0 0 0 0 0 0 0 0 
;
param bs:	 0 1 2 3 4 5 6 7 8 9 10 11 12 13 14 15 16 17 18 19 20 21 22 23 24 25 26 27 28 29 := 
		0 0 25 0 27 0 0 0 0 0 26 0 0 0 0 0 0 0 0 0 0 0 0 0 27 0 0 0 0 27 0 
		1 25 0 0 0 0 0 0 0 0 0 0 0 0 0 0 0 0 0 0 20 0 0 0 0 0 0 0 0 0 30 
		2 0 0 0 0 36 0 0 0 0 0 0 0 0 0 39 0 0 0 0 0 0 0 0 0 0 0 0 0 0 0 
		3 27 0 0 0 0 0 0 0 0 36 0 0 0 0 0 0 0 0 0 0 0 0 0 20 0 0 0 0 25 0 
		4 0 0 36 0 0 0 37 0 0 0 0 0 0 21 0 0 0 0 0 0 0 0 0 0 36 0 0 0 0 0 
		5 0 0 0 0 0 0 0 0 0 27 0 0 0 0 0 0 0 0 0 0 25 0 0 0 0 0 27 0 0 35 
		6 0 0 0 0 37 0 0 0 0 0 0 0 0 26 0 0 40 0 0 0 20 0 0 0 0 0 0 0 0 0 
		7 0 0 0 0 0 0 0 0 0 0 0 0 0 0 0 33 0 0 0 0 0 0 0 0 0 37 0 0 39 0 
		8 0 0 0 0 0 0 0 0 0 0 0 0 0 0 0 0 0 0 35 0 0 0 0 0 0 0 0 0 23 0 
		9 26 0 0 36 0 27 0 0 0 0 0 0 0 0 40 0 20 21 0 0 0 0 0 0 0 0 0 0 0 0 
		10 0 0 0 0 0 0 0 0 0 0 0 0 0 29 0 0 0 0 0 0 39 0 0 0 0 39 0 0 0 0 
		11 0 0 0 0 0 0 0 0 0 0 0 0 34 0 0 0 0 0 0 0 0 0 0 0 0 0 0 0 0 0 
		12 0 0 0 0 0 0 0 0 0 0 0 34 0 28 0 0 0 22 0 0 0 0 0 0 0 0 0 0 0 0 
		13 0 0 0 0 21 0 26 0 0 0 29 0 28 0 0 0 28 0 0 0 0 0 0 0 36 0 0 0 0 0 
		14 0 0 39 0 0 0 0 0 0 40 0 0 0 0 0 0 0 0 0 0 0 0 0 0 0 0 0 0 0 0 
		15 0 0 0 0 0 0 0 33 0 0 0 0 0 0 0 0 0 0 0 0 0 0 32 0 0 0 0 0 0 0 
		16 0 0 0 0 0 0 40 0 0 20 0 0 0 28 0 0 0 0 27 0 0 28 0 0 0 34 0 0 0 0 
		17 0 0 0 0 0 0 0 0 0 21 0 0 22 0 0 0 0 0 0 0 0 0 0 0 0 0 0 0 0 0 
		18 0 0 0 0 0 0 0 0 35 0 0 0 0 0 0 0 27 0 0 0 39 35 0 0 23 0 0 0 0 0 
		19 0 20 0 0 0 0 0 0 0 0 0 0 0 0 0 0 0 0 0 0 0 34 0 0 0 0 0 32 0 0 
		20 0 0 0 0 0 25 20 0 0 0 39 0 0 0 0 0 0 0 39 0 0 0 0 0 21 0 0 0 0 0 
		21 0 0 0 0 0 0 0 0 0 0 0 0 0 0 0 0 28 0 35 34 0 0 0 0 24 0 0 39 0 0 
		22 0 0 0 0 0 0 0 0 0 0 0 0 0 0 0 32 0 0 0 0 0 0 0 0 22 0 0 0 0 0 
		23 27 0 0 20 0 0 0 0 0 0 0 0 0 0 0 0 0 0 0 0 0 0 0 0 0 0 0 0 22 0 
		24 0 0 0 0 36 0 0 0 0 0 0 0 0 36 0 0 0 0 23 0 21 24 22 0 0 0 0 0 0 0 
		25 0 0 0 0 0 0 0 37 0 0 39 0 0 0 0 0 34 0 0 0 0 0 0 0 0 0 0 0 0 38 
		26 0 0 0 0 0 27 0 0 0 0 0 0 0 0 0 0 0 0 0 0 0 0 0 0 0 0 0 0 0 0 
		27 0 0 0 0 0 0 0 0 0 0 0 0 0 0 0 0 0 0 0 32 0 39 0 0 0 0 0 0 0 0 
		28 27 0 0 25 0 0 0 39 23 0 0 0 0 0 0 0 0 0 0 0 0 0 0 22 0 0 0 0 0 0 
		29 0 30 0 0 0 35 0 0 0 0 0 0 0 0 0 0 0 0 0 0 0 0 0 0 0 38 0 0 0 0 
;
